
<<< setup


<<< generate

CPXPARAM_TimeLimit                               3600
Found incumbent of value 0,000000 after 1,77 sec. (1332,57 ticks)
Presolve has eliminated 6612027 rows and 7979374 columns...
Presolve has improved bounds 394 times...
Presolve has eliminated 6612125 rows and 7984697 columns...
Presolve has improved bounds 5717 times...
Aggregator has done 1 substitutions...
Aggregator has done 2 substitutions...
Aggregator has done 3 substitutions...
Aggregator has done 4 substitutions...
Aggregator has done 5 substitutions...
Aggregator has done 6 substitutions...
Aggregator has done 7 substitutions...
Aggregator has done 8 substitutions...
Aggregator has done 9 substitutions...
Aggregator has done 10 substitutions...
Aggregator has done 11 substitutions...
Aggregator has done 12 substitutions...
Aggregator has done 13 substitutions...
Aggregator has done 14 substitutions...
Aggregator has done 15 substitutions...
Aggregator has done 16 substitutions...
Aggregator has done 17 substitutions...
Aggregator has done 18 substitutions...
Aggregator has done 19 substitutions...
Aggregator has done 20 substitutions...
Aggregator has done 21 substitutions...
Aggregator has done 22 substitutions...
Aggregator has done 23 substitutions...
Aggregator has done 24 substitutions...
Aggregator has done 25 substitutions...
Aggregator has done 26 substitutions...
Aggregator has done 27 substitutions...
Tried aggregator 28 times.
MIP Presolve eliminated 6612125 rows and 7984750 columns.
Aggregator did 27 substitutions.
Reduced MIP has 91846 rows, 7866123 columns, and 23323233 nonzeros.
Reduced MIP has 7866121 binaries, 2 generals, 0 SOSs, and 0 indicators.
Presolve time = 1144,72 sec. (654233,75 ticks)
Presolve has eliminated 0 rows and 0 columns...
Tried aggregator 1 time.
Reduced MIP has 91846 rows, 7866123 columns, and 23323233 nonzeros.
Reduced MIP has 7866121 binaries, 2 generals, 0 SOSs, and 0 indicators.
Presolve time = 47,56 sec. (27325,97 ticks)

Root node processing (before b&c):
  Real time             = 1248,44 sec. (693309,36 ticks)
Parallel b&c, 8 threads:
  Real time             =    0,00 sec. (0,00 ticks)
  Sync time (average)   =    0,00 sec.
  Wait time (average)   =    0,00 sec.
                          ------------
Total (root+branch&cut) = 1248,44 sec. (693309,36 ticks)
*** FATAL[ENGINE_002]: Exception IBM ILOG CPLEX : CPLEX Error  1001: Out of memory.
.
### ENGINE exception: Echec du traitement.

<<< no solution

